50
    1   256   655
    2   892   896
    3   386   346
    4   282   927
    5    67   508
    6   591   165
    7    19   981
    8   665    95
    9   112   893
   10   192   822
   11   241   995
   12     9   679
   13   141   596
   14  1000   256
   15   841   228
   16   394   528
   17    24   645
   18   984   188
   19   732   961
   20   839   890
   21   139   277
   22   485    11
   23   142   156
   24   558   514
   25   835   956
   26   652   636
   27   290   978
   28   405   795
   29   636   805
   30   470   587
   31   935    33
   32   678     7
   33   454   707
   34   845   289
   35   957   300
   36   811   237
   37   915   212
   38   701   280
   39   160   156
   40   705   106
   41    78   151
   42   379   277
   43   371   190
   44    89   273
   45   820   239
   46   961   558
   47   566   609
   48   106    29
   49   678   119
   50   151   252
19160
